117 175
12 9 
12 9 
12 9 
12 9 
12 9 
12 9 
11 12 
11 12 
11 12 
11 12 
7 13 
7 13 
7 13 
7 13 
7 13 
7 13 
7 13 
7 13 
21 10 
21 10 
21 10 
21 10 
18 14 
18 14 
18 14 
7 13 
7 13 
7 13 
7 13 
7 13 
18 17 
18 17 
20 8 
20 8 
12 2 
12 2 
12 2 
12 2 
15 17 
15 17 
15 17 
13 8 
13 8 
13 8 
5 5 
5 5 
5 5 
5 5 
5 5 
5 5 
5 5 
15 12 
15 12 
15 12 
15 12 
16 12 
16 12 
16 12 
16 21 
16 21 
13 8 
13 8 
13 8 
15 13 
15 13 
7 9 
7 9 
7 9 
7 9 
7 9 
8 9 
8 9 
8 9 
8 9 
8 9 
8 9 
8 9 
8 9 
11 16 
11 16 
13 25 
13 25 
13 25 
14 15 
14 15 
13 21 
13 21 
12 9 
12 9 
5 15 
5 15 
5 15 
5 15 
5 15 
9 13 
9 13 
9 13 
16 14 
16 14 
16 14 
16 14 
16 14 
16 14 
11 9 
11 9 
11 9 
7 9 
7 9 
7 9 
7 9 
7 9 
9 14 
9 14 
9 14 
9 14 
9 14 
9 14 
